c Command line: hgen8 115 30
p cnf 115 185
54 42 109 60 0
101 57 38 78 0
72 2 20 81 0
95 87 83 99 0
19 91 22 111 0
108 13 55 106 0
110 61 49 31 0
90 67 94 4 0
66 43 88 40 0
114 69 89 21 0
12 1 11 64 0
47 74 6 80 0
77 44 3 115 0
82 71 86 53 0
58 76 17 36 0
56 5 37 97 0
104 96 23 35 0
107 27 25 98 0
93 7 113 39 0
15 10 29 62 0
112 45 8 24 0
50 65 52 92 0
100 102 59 85 0
73 26 51 105 0
-1 -2 0
-1 -3 0
-1 -4 0
-1 -5 0
-2 -3 0
-2 -4 0
-2 -5 0
-3 -4 0
-3 -5 0
-4 -5 0
-6 -7 0
-6 -8 0
-6 -10 0
-7 -8 0
-7 -10 0
-8 -10 0
-11 -12 0
-11 -13 0
-11 -15 0
-12 -13 0
-12 -15 0
-13 -15 0
-17 -19 0
-17 -20 0
-19 -20 0
-21 -22 0
-21 -23 0
-21 -24 0
-21 -25 0
-22 -23 0
-22 -24 0
-22 -25 0
-23 -24 0
-23 -25 0
-24 -25 0
-26 -27 0
-26 -29 0
-27 -29 0
-31 -35 0
-36 -37 0
-36 -38 0
-36 -39 0
-36 -40 0
-37 -38 0
-37 -39 0
-37 -40 0
-38 -39 0
-38 -40 0
-39 -40 0
-42 -43 0
-42 -44 0
-42 -45 0
-43 -44 0
-43 -45 0
-44 -45 0
-47 -49 0
-47 -50 0
-49 -50 0
-51 -52 0
-51 -53 0
-51 -54 0
-51 -55 0
-52 -53 0
-52 -54 0
-52 -55 0
-53 -54 0
-53 -55 0
-54 -55 0
-56 -57 0
-56 -58 0
-56 -59 0
-56 -60 0
-57 -58 0
-57 -59 0
-57 -60 0
-58 -59 0
-58 -60 0
-59 -60 0
-61 -62 0
-61 -64 0
-61 -65 0
-62 -64 0
-62 -65 0
-64 -65 0
-66 -67 0
-66 -69 0
-67 -69 0
-71 -72 0
-71 -73 0
-71 -74 0
-72 -73 0
-72 -74 0
-73 -74 0
-76 -77 0
-76 -78 0
-76 -80 0
-77 -78 0
-77 -80 0
-78 -80 0
-81 -82 0
-81 -83 0
-81 -85 0
-82 -83 0
-82 -85 0
-83 -85 0
-86 -87 0
-86 -88 0
-86 -89 0
-86 -90 0
-87 -88 0
-87 -89 0
-87 -90 0
-88 -89 0
-88 -90 0
-89 -90 0
-91 -92 0
-91 -93 0
-91 -94 0
-91 -95 0
-92 -93 0
-92 -94 0
-92 -95 0
-93 -94 0
-93 -95 0
-94 -95 0
-96 -97 0
-96 -98 0
-96 -99 0
-96 -100 0
-97 -98 0
-97 -99 0
-97 -100 0
-98 -99 0
-98 -100 0
-99 -100 0
-101 -102 0
-101 -104 0
-101 -105 0
-102 -104 0
-102 -105 0
-104 -105 0
-106 -107 0
-106 -108 0
-106 -109 0
-106 -110 0
-107 -108 0
-107 -109 0
-107 -110 0
-108 -109 0
-108 -110 0
-109 -110 0
-111 -112 0
-111 -113 0
-111 -114 0
-111 -115 0
-112 -113 0
-112 -114 0
-112 -115 0
-113 -114 0
-113 -115 0
-114 -115 0
